
<<< setup


<<< generate

Version identifier: 12.10.0.0 | 2019-11-26 | 843d4de2ae
CPXPARAM_TimeLimit                               1200
Tried aggregator 2 times.
MIP Presolve eliminated 5174643 rows and 2942175 columns.
MIP Presolve modified 420818 coefficients.
Aggregator did 1539 substitutions.
Reduced MIP has 74468 rows, 75336 columns, and 459682 nonzeros.
Reduced MIP has 75286 binaries, 0 generals, 0 SOSs, and 0 indicators.
Presolve time = 6.05 sec. (3791.90 ticks)
Found incumbent of value 0.000000 after 9.42 sec. (4934.39 ticks)
Probing fixed 999 vars, tightened 0 bounds.
Probing time = 7.58 sec. (1393.57 ticks)
Cover probing fixed 2 vars, tightened 0 bounds.
Tried aggregator 2 times.
Detecting symmetries...
MIP Presolve eliminated 881 rows and 1005 columns.
Aggregator did 10 substitutions.
Reduced MIP has 73577 rows, 74321 columns, and 453712 nonzeros.
Reduced MIP has 74271 binaries, 0 generals, 0 SOSs, and 0 indicators.
Presolve time = 0.72 sec. (430.38 ticks)
Probing fixed 5 vars, tightened 0 bounds.
Probing time = 0.77 sec. (132.84 ticks)
Clique table members: 259520.
MIP emphasis: balance optimality and feasibility.
MIP search method: dynamic search.
Parallel mode: deterministic, using up to 4 threads.
Root relaxation solution time = 12.88 sec. (5262.21 ticks)

        Nodes                                         Cuts/
   Node  Left     Objective  IInf  Best Integer    Best Bound    ItCnt     Gap

*     0+    0                            0.0000   118705.0000              --- 
      0     0   118705.0000  1070        0.0000   118705.0000    17130     --- 
      0     0   118705.0000  1070        0.0000     Cuts: 110    34270     --- 
      0     0   118705.0000  1070        0.0000     Cuts: 382    52895     --- 
Heuristic still looking.
Heuristic still looking.
      0     2   118705.0000   738        0.0000   118705.0000    74493     --- 
Elapsed time = 468.61 sec. (289016.75 ticks, tree = 0.02 MB, solutions = 1)
      1     3   118705.0000   839        0.0000   118705.0000   100940     --- 
*     2+    1                         3237.0000   118705.0000              --- 
      2     4   118705.0000   781     3237.0000   118705.0000   114794     --- 
      3     3   118705.0000   737     3237.0000   118705.0000    74494     --- 
      4     6   118705.0000  1034     3237.0000   118705.0000   128146     --- 
      5     5   118705.0000   973     3237.0000   118705.0000   135647     --- 
      6     8   118705.0000  1039     3237.0000   118705.0000   152804     --- 
      7     9   118705.0000  1127     3237.0000   118705.0000   159933     --- 
      8    10   118705.0000  1051     3237.0000   118705.0000   160202     --- 
      9     7   118705.0000   945     3237.0000   118705.0000   136948     --- 
     10     8   118705.0000  1028     3237.0000   118705.0000   144021     --- 
Elapsed time = 582.42 sec. (344829.06 ticks, tree = 0.08 MB, solutions = 2)
     12    11   118705.0000   894     3237.0000   118705.0000   161922     --- 
     14    11   118705.0000   948     3237.0000   118705.0000   146446     --- 
     15    12   118705.0000   979     3237.0000   118705.0000   148219     --- 
     17    12   118705.0000   937     3237.0000   118705.0000   162316     --- 
     21    14   118705.0000  1011     3237.0000   118705.0000   163915     --- 
     23    16   118705.0000  1039     3237.0000   118705.0000   159251     --- 
     25    18   118705.0000  1057     3237.0000   118705.0000   166235     --- 
     26    16   118705.0000  1191     3237.0000   118705.0000   167908     --- 
     28    20   118705.0000   976     3237.0000   118705.0000   187091     --- 
     31    21   118705.0000  1042     3237.0000   118705.0000   191159     --- 
Elapsed time = 625.27 sec. (361870.88 ticks, tree = 0.51 MB, solutions = 2)
     33    23   118705.0000  1011     3237.0000   118705.0000   196721     --- 
     37    32   118705.0000  1055     3237.0000   118705.0000   218528     --- 
     41    42   118705.0000  1125     3237.0000   118705.0000   245697     --- 
     43    34   118705.0000  1020     3237.0000   118705.0000   225000     --- 
     46    46   118705.0000  1069     3237.0000   118705.0000   263640     --- 
     48    35   118705.0000  1076     3237.0000   118705.0000   230808     --- 
     50    52   118705.0000  1006     3237.0000   118705.0000   282668     --- 
     51     4   118705.0000   915     3237.0000   118705.0000   116082     --- 
     53    54   118705.0000  1015     3237.0000   118705.0000   285978     --- 
     54    55   118705.0000  1145     3237.0000   118705.0000   290536     --- 
Elapsed time = 662.58 sec. (378144.14 ticks, tree = 1.44 MB, solutions = 2)
     56    57   118705.0000  1062     3237.0000   118705.0000   297982     --- 
     58    60   118705.0000  1129     3237.0000   118705.0000   319854     --- 
     61    63   118705.0000  1021     3237.0000   118705.0000   324585     --- 
     65    66   118705.0000  1094     3237.0000   118705.0000   336956     --- 
     68    68   118705.0000  1057     3237.0000   118705.0000   344589     --- 
     70    70   118705.0000  1075     3237.0000   118705.0000   349074     --- 
     72    72   118705.0000  1097     3237.0000   118705.0000   355435     --- 
     74    76   118705.0000  1107     3237.0000   118705.0000   382741     --- 
     80    78   118705.0000  1080     3237.0000   118705.0000   387931     --- 
     82    77   118705.0000  1011     3237.0000   118705.0000   380635     --- 
Elapsed time = 696.00 sec. (392533.13 ticks, tree = 1.74 MB, solutions = 2)
     85    78   118705.0000   968     3237.0000   118705.0000   381693     --- 
     89    84   118705.0000  1035     3237.0000   118705.0000   404881     --- 
     90    79   118705.0000   979     3237.0000   118705.0000   388519     --- 
     93    80   118705.0000  1120     3237.0000   118705.0000   403653     --- 
     96    89   118705.0000  1027     3237.0000   118705.0000   433681     --- 
     99    90   118705.0000  1079     3237.0000   118705.0000   445898     --- 
    102    96   118705.0000  1079     3237.0000   118705.0000   472145     --- 
    105    93   118705.0000  1028     3237.0000   118705.0000   453688     --- 
    108    91   118705.0000  1120     3237.0000   118705.0000   466122     --- 
    111    99   118705.0000  1116     3237.0000   118705.0000   484733     --- 
Elapsed time = 739.31 sec. (407858.95 ticks, tree = 1.88 MB, solutions = 2)
    115   101   118705.0000  1137     3237.0000   118705.0000   489155     --- 
    118    93   118705.0000   868     3237.0000   118705.0000   477093     --- 
    119   105   118705.0000   905     3237.0000   118705.0000   509634     --- 
    122   106   118705.0000   996     3237.0000   118705.0000   514306     --- 
    126   108   118705.0000   990     3237.0000   118705.0000   524815     --- 
    131   110   118705.0000  1123     3237.0000   118705.0000   532000     --- 
    136   112   118705.0000  1078     3237.0000   118705.0000   537933     --- 
    141   114   118705.0000   879     3237.0000   118705.0000   573806     --- 
    144   115   118705.0000   990     3237.0000   118705.0000   582312     --- 
    149   139   118705.0000  1037     3237.0000   118705.0000   659267     --- 
Elapsed time = 770.69 sec. (422596.08 ticks, tree = 3.09 MB, solutions = 2)
    153   131   118705.0000  1087     3237.0000   118705.0000   639205     --- 
    158   118   118705.0000   928     3237.0000   118705.0000   592809     --- 
    163   113   118705.0000  1066     3237.0000   118705.0000   559603     --- 
    169   147   118705.0000  1032     3237.0000   118705.0000   676877     --- 
    173   144   118705.0000   951     3237.0000   118705.0000   675191     --- 
    179   151   118705.0000  1089     3237.0000   118705.0000   691148     --- 
    185   154   118705.0000   873     3237.0000   118705.0000   718598     --- 
    189   147   118705.0000   963     3237.0000   118705.0000   678398     --- 
    191   155   118705.0000   960     3237.0000   118705.0000   720622     --- 
    196   149   118705.0000  1121     3237.0000   118705.0000   683737     --- 
Elapsed time = 804.77 sec. (437366.98 ticks, tree = 3.39 MB, solutions = 2)
    200   151   118705.0000  1085     3237.0000   118705.0000   688120     --- 
    205   191   118705.0000  1053     3237.0000   118705.0000   834841     --- 
    207   160   118705.0000   868     3237.0000   118705.0000   727883     --- 
    209   173   118705.0000  1097     3237.0000   118705.0000   784564     --- 
    211   175   118705.0000   935     3237.0000   118705.0000   785553     --- 
    216   203   118705.0000   898     3237.0000   118705.0000   853951     --- 
    220   205   118705.0000   913     3237.0000   118705.0000   858632     --- 
    225   207   118705.0000   955     3237.0000   118705.0000   862371     --- 
    232   195   118705.0000   975     3237.0000   118705.0000   850350     --- 
    234   181   118705.0000   927     3237.0000   118705.0000   790857     --- 
Elapsed time = 847.83 sec. (454922.71 ticks, tree = 4.46 MB, solutions = 2)
    237   209   118705.0000   958     3237.0000   118705.0000   880037     --- 
    240   211   118705.0000   936     3237.0000   118705.0000   887124     --- 
    242   211   118705.0000  1159     3237.0000   118705.0000   867825     --- 
    245   212   118705.0000  1025     3237.0000   118705.0000   868788     --- 
    246   213   118705.0000  1061     3237.0000   118705.0000   870409     --- 
    249   215   118705.0000   970     3237.0000   118705.0000   872872     --- 
    250   213   118705.0000   922     3237.0000   118705.0000   892562     --- 
    251   215    infeasible           3237.0000   118705.0000   879606     --- 
    252   229    infeasible           3237.0000   118705.0000   924743     --- 
    253   214    infeasible           3237.0000   118705.0000   879866     --- 
Elapsed time = 978.69 sec. (478246.84 ticks, tree = 5.62 MB, solutions = 2)
    254   167   118705.0000  1047     3237.0000   118705.0000   774890     --- 
    255   228    infeasible           3237.0000   118705.0000   924965     --- 
    256   227    infeasible           3237.0000   118705.0000   925503     --- 
    257   231    infeasible           3237.0000   118705.0000   956820     --- 
    258   229   118705.0000  1036     3237.0000   118705.0000   939617     --- 
    260   233    infeasible           3237.0000   118705.0000   974249     --- 
    261   234   118705.0000   913     3237.0000   118705.0000   993640     --- 
    262   235   118705.0000  1185     3237.0000   118705.0000  1001395     --- 
    263   236   118705.0000  1249     3237.0000   118705.0000  1011093     --- 
    269   239   118705.0000  1401     3237.0000   118705.0000  1021232     --- 
Elapsed time = 1116.83 sec. (516796.62 ticks, tree = 6.44 MB, solutions = 2)
    279   239   118705.0000  1145     3237.0000   118705.0000  1029372     --- 
    285   233   118705.0000   946     3237.0000   118705.0000  1022182     --- 
    289   239   118705.0000   932     3237.0000   118705.0000  1085063     --- 
    293   242   118705.0000  1177     3237.0000   118705.0000  1115161     --- 
    297   243   118705.0000  1064     3237.0000   118705.0000  1119274     --- 
    303   255   118705.0000  1035     3237.0000   118705.0000  1162395     --- 
    305   257   118705.0000  1070     3237.0000   118705.0000  1170322     --- 

Clique cuts applied:  8
Implied bound cuts applied:  439
Flow cuts applied:  19
Mixed integer rounding cuts applied:  1

Root node processing (before b&c):
  Real time             =  438.73 sec. (269724.25 ticks)
Parallel b&c, 4 threads:
  Real time             =  761.84 sec. (293321.05 ticks)
  Sync time (average)   =  170.69 sec.
  Wait time (average)   =    0.00 sec.
                          ------------
Total (root+branch&cut) = 1200.58 sec. (563045.30 ticks)

<<< solve


OBJECTIVE: 3237

<<< post process


<<< done

